TCS_Benchmarks/redos_fix/corpus1_output_distinct_1299_1298_65_0.txt
(.*)([0-9\-A-Za-z_]+)
(.*)(\/user\/([0-9A-Za-z]+)\/.*\/)([0-9\-A-Za-z_]+)